RT is False
Default write of storage_offers_DA.csv just to have a file (but constraint should be inactive)
Reading model...
...model read.
creating competitive generators file...
...competitive generators recorded.
Loading data...
.. day-ahead data with real-time VRE data read.
Compiling instance...
...instance created.
Creating Offer Mitigation (model will solve as dispatch if TRUE)...
NOTE: storage offers will not be mitigated
...storage offer mitigation file created
Converting model to MPEC...
...converted
NOTE: initial MIP solve with only storage competitive to get feasible solution
Solving...

Welcome to IBM(R) ILOG(R) CPLEX(R) Interactive Optimizer 12.9.0.0
  with Simplex, Mixed Integer & Barrier Optimizers
5725-A06 5725-A29 5724-Y48 5724-Y49 5724-Y54 5724-Y55 5655-Y21
Copyright IBM Corp. 1988, 2019.  All Rights Reserved.

Type 'help' for a list of available commands.
Type 'help' followed by a command name for more
information on commands.

CPLEX> Logfile 'cplex.log' closed.
Logfile 'C:\Users\llavin\Desktop\test919\logs\tmp076kuff7.cplex.log' open.
CPLEX> New value for parallel optimization mode: -1
CPLEX> New value for mixed integer optimality gap tolerance: 0.01
CPLEX> New value for integrality tolerance: 1e-09
CPLEX> New value for feasibility tolerance: 0.1
CPLEX> New value for deterministic time limit in ticks: 100000
CPLEX> Problem 'C:\Users\llavin\Desktop\test919\logs\tmpxeektvzj.pyomo.lp' read.
Read time = 0.27 sec. (13.86 ticks)
CPLEX> Problem name         : C:\Users\llavin\Desktop\test919\logs\tmpxeektvzj.pyomo.lp
Objective sense      : Maximize
Variables            :   53321  [Nneg: 1,  Box: 21806,  Free: 4416,
                                 Binary: 27098]
Objective nonzeros   :    8979
Linear constraints   :  122164  [Less: 40983,  Greater: 58612,  Equal: 22569]
  Nonzeros           :  288504
  RHS nonzeros       :   66981

Variables            : Min LB: -5000.000        Max UB: 1000000.       
Objective nonzeros   : Min   : 0.4083333        Max   : 722.0000       
Linear constraints   :
  Nonzeros           : Min   : 0.4083333        Max   : 1000000.       
  RHS nonzeros       : Min   : 0.4083333        Max   : 1000000.       
CPLEX> CPXPARAM_Parallel                                -1
CPXPARAM_Simplex_Tolerances_Feasibility          0.10000000000000001
CPXPARAM_DetTimeLimit                            100000
CPXPARAM_MIP_Tolerances_MIPGap                   0.01
CPXPARAM_MIP_Tolerances_Integrality              1.0000000000000001e-09
Tried aggregator 3 times.
MIP Presolve eliminated 88078 rows and 18934 columns.
MIP Presolve added 3377 rows and 0 columns.
MIP Presolve modified 22977 coefficients.
Aggregator did 12856 substitutions.
Reduced MIP has 24607 rows, 20975 columns, and 68946 nonzeros.
Reduced MIP has 8293 binaries, 0 generals, 0 SOSs, and 0 indicators.
Presolve time = 0.30 sec. (175.54 ticks)
Probing fixed 443 vars, tightened 2925 bounds.
Probing time = 1.24 sec. (904.84 ticks)
Tried aggregator 2 times.
MIP Presolve eliminated 989 rows and 886 columns.
MIP Presolve modified 2189 coefficients.
Aggregator did 58 substitutions.
Reduced MIP has 23560 rows, 20031 columns, and 65908 nonzeros.
Reduced MIP has 7850 binaries, 0 generals, 0 SOSs, and 0 indicators.
Presolve time = 0.09 sec. (65.77 ticks)
Probing time = 0.05 sec. (15.46 ticks)
Clique table members: 6278.
MIP emphasis: balance optimality and feasibility.
MIP search method: dynamic search.
Parallel mode: opportunistic, using up to 32 threads.
Root relaxation solution time = 0.45 sec. (534.52 ticks)

        Nodes                                         Cuts/
   Node  Left     Objective  IInf  Best Integer    Best Bound    ItCnt     Gap

      0     0     4274.2816   737                   4274.2816     7313         
      0     0     4269.6178   552                  Cuts: 1040     7694         
      0     0     4263.4559   369                   Cuts: 994     7909         
      0     0     4261.5340   318                   Cuts: 476     8011         
      0     0     4261.5340   307                   Cuts: 289     8039         
      0     0     4261.5340   302                   Cuts: 156     8073         
      0     0     4261.5340   288                   Cuts: 165     8086         
      0     0     4261.5340   283                   Cuts: 138     8097         
      0     0     4257.5510    80                    Cuts: 12     8097         
      0    36    infeasible                           Cuts: 7     8413         
Elapsed time = 11.05 sec. (6695.33 ticks, tree = 0.02 MB, solutions = 0)
    413   134     4193.5871    73                   4251.3261    12345         
   1047   172   -14280.1854    69                   4251.3261    14187         
   1673  1146     4227.6534    52                   4251.3261    31078         
   2646  1639     4182.0541    41                   4251.3261    35773         
   3731  1822     4145.3945     6                   4251.3261    36426         
   3988  2847    infeasible                         4251.3261    38035         
   4154  3270     4231.3748    28                   4251.3261    38614         
   4301  3197     3102.5078    20                   4251.3261    38546         
*  4387+ 3421                       -34766.4138     4251.3261           112.23%
*  4506  3433      integral     0   -32555.2595     4251.3261    39175  113.06%
*  5305  3244      integral     0     4230.8113     4246.5678    40767    0.37%
   5457  3266        cutoff           4230.8113     4246.5678    41560    0.37%
Elapsed time = 23.39 sec. (9697.76 ticks, tree = 23.21 MB, solutions = 11)
   5895  3413     4236.1331    28     4230.8113     4246.5678    42505    0.37%

Clique cuts applied:  53
Implied bound cuts applied:  105
Flow cuts applied:  521
Mixed integer rounding cuts applied:  35
Gomory fractional cuts applied:  29

Root node processing (before b&c):
  Real time             =    9.42 sec. (6676.59 ticks)
Parallel b&c, 32 threads:
  Real time             =   14.92 sec. (4062.00 ticks)
  Sync time (average)   =    0.75 sec.
  Wait time (average)   =    0.00 sec.
                          ------------
Total (root+branch&cut) =   24.34 sec. (10738.58 ticks)

Solution pool: 11 solutions saved.

MIP - Integer optimal, tolerance (0.01/1e-06):  Objective =  4.2308113010e+03
Current MIP best bound =  4.2365750811e+03 (gap = 5.76378, 0.14%)
Solution time =   24.34 sec.  Iterations = 45104  Nodes = 5896 (66)
Deterministic time = 10738.74 ticks  (441.12 ticks/sec)

CPLEX> Incumbent solution written to file 'C:\Users\llavin\Desktop\test919\logs\tmpswj3m3j8.cplex.sol'.
CPLEX> NOTE: no warmstart specified for MIP iteration, default behavior is true
NOTE: resolving with all competitive generators using storage-only solution to warmstart
Solving...

Welcome to IBM(R) ILOG(R) CPLEX(R) Interactive Optimizer 12.9.0.0
  with Simplex, Mixed Integer & Barrier Optimizers
5725-A06 5725-A29 5724-Y48 5724-Y49 5724-Y54 5724-Y55 5655-Y21
Copyright IBM Corp. 1988, 2019.  All Rights Reserved.

Type 'help' for a list of available commands.
Type 'help' followed by a command name for more
information on commands.

CPLEX> Logfile 'cplex.log' closed.
Logfile 'C:\Users\llavin\Desktop\test919\logs\tmpo2ydb8jm.cplex.log' open.
CPLEX> New value for parallel optimization mode: -1
CPLEX> New value for mixed integer optimality gap tolerance: 0.01
CPLEX> New value for integrality tolerance: 1e-09
CPLEX> New value for feasibility tolerance: 0.1
CPLEX> New value for deterministic time limit in ticks: 100000
CPLEX> Problem 'C:\Users\llavin\Desktop\test919\logs\tmpamx1pr2l.pyomo.lp' read.
Read time = 0.25 sec. (13.88 ticks)
CPLEX> MIP start file 'C:\Users\llavin\Desktop\test919\logs\tmpcsdl5ygr.cplex.mst' read.
CPLEX> Problem name         : C:\Users\llavin\Desktop\test919\logs\tmpamx1pr2l.pyomo.lp
Objective sense      : Maximize
Variables            :   54041  [Nneg: 1,  Box: 22526,  Free: 4416,
                                 Binary: 27098]
Objective nonzeros   :    9699
Linear constraints   :  122164  [Less: 40983,  Greater: 58612,  Equal: 22569]
  Nonzeros           :  288504
  RHS nonzeros       :   66981

Variables            : Min LB: -5000.000        Max UB: 1000000.       
Objective nonzeros   : Min   : 0.4083333        Max   : 722.0000       
Linear constraints   :
  Nonzeros           : Min   : 0.4083333        Max   : 1000000.       
  RHS nonzeros       : Min   : 0.4083333        Max   : 1000000.       
CPLEX> CPXPARAM_Parallel                                -1
CPXPARAM_Simplex_Tolerances_Feasibility          0.10000000000000001
CPXPARAM_DetTimeLimit                            100000
CPXPARAM_MIP_Tolerances_MIPGap                   0.01
CPXPARAM_MIP_Tolerances_Integrality              1.0000000000000001e-09
Warning:  No solution found from 1 MIP starts.
Retaining values of one MIP start for possible repair.
Tried aggregator 3 times.
MIP Presolve eliminated 88078 rows and 19654 columns.
MIP Presolve added 3377 rows and 0 columns.
MIP Presolve modified 22977 coefficients.
Aggregator did 12856 substitutions.
Reduced MIP has 24607 rows, 20975 columns, and 68946 nonzeros.
Reduced MIP has 8293 binaries, 0 generals, 0 SOSs, and 0 indicators.
Presolve time = 0.30 sec. (175.91 ticks)
Probing fixed 443 vars, tightened 2925 bounds.
Probing time = 1.22 sec. (904.84 ticks)
Tried aggregator 2 times.
MIP Presolve eliminated 989 rows and 886 columns.
MIP Presolve modified 2189 coefficients.
Aggregator did 58 substitutions.
Reduced MIP has 23560 rows, 20031 columns, and 65908 nonzeros.
Reduced MIP has 7850 binaries, 0 generals, 0 SOSs, and 0 indicators.
Presolve time = 0.09 sec. (65.77 ticks)
Probing time = 0.05 sec. (15.46 ticks)
Clique table members: 6278.
MIP emphasis: balance optimality and feasibility.
MIP search method: dynamic search.
Parallel mode: opportunistic, using up to 32 threads.
Root relaxation solution time = 0.45 sec. (534.52 ticks)

        Nodes                                         Cuts/
   Node  Left     Objective  IInf  Best Integer    Best Bound    ItCnt     Gap

      0     0     4274.2816   737                   4274.2816     7313         
      0     0     4269.6178   552                  Cuts: 1040     7694         
      0     0     4263.4559   369                   Cuts: 994     7909         
      0     0     4261.5340   318                   Cuts: 476     8011         
      0     0     4261.5340   307                   Cuts: 289     8039         
      0     0     4261.5340   302                   Cuts: 156     8073         
      0     0     4261.5340   288                   Cuts: 165     8086         
      0     0     4261.5340   283                   Cuts: 138     8097         
      0     0     4257.5510    80                    Cuts: 12     8097         
Repair heuristic found nothing.
      0    23    infeasible                           Cuts: 7     8301         
Elapsed time = 11.44 sec. (6728.87 ticks, tree = 0.02 MB, solutions = 0)
    613   145     3594.2245    71                   4251.3261     9916         
   1174   491     4174.2946    68                   4251.3261    14959         
   1735   818     4236.1331    54                   4251.3261    20820         
*  2192+ 1651                      -444176.5797     4251.3261           100.96%
   3191  1448     4225.0464    39  -444176.5797     4251.3261    29486  100.96%
   4098  2246     4196.1463    12  -444176.5797     4251.3261    35798  100.96%
   4389  3190     4200.9047    13  -444176.5797     4251.3261    37778  100.96%
   4565  3726     4188.3868    24  -444176.5797     4251.3261    38334  100.96%
   4716  3736     1794.3669    15  -444176.5797     4251.3261    38365  100.96%
*  5234  3804      integral     0   -31627.4116     4251.3261    38762  113.44%
   5315  3816     4235.5696    39   -31627.4116     4251.3261    39144  113.44%
Elapsed time = 23.44 sec. (9743.16 ticks, tree = 25.16 MB, solutions = 4)
   5423  3980     1250.4603    61   -31627.4116     4232.9399    47097  113.38%
   7762  1951   -11628.4925    26   -31627.4116     4232.2351    52249  113.38%
   9164  2684     -802.6748    28   -31627.4116     4232.2351    58996  113.38%
   9820  3150        cutoff         -31627.4116     4232.2351    63655  113.38%
* 10087  3311      integral     0     4196.5647     4232.2351    65110    0.85%
  10321  3327      437.6844    23     4196.5647     4232.2351    65126    0.85%

GUB cover cuts applied:  1
Clique cuts applied:  44
Cover cuts applied:  14
Implied bound cuts applied:  152
Flow cuts applied:  640
Mixed integer rounding cuts applied:  228
Zero-half cuts applied:  1
Gomory fractional cuts applied:  84

Root node processing (before b&c):
  Real time             =    9.63 sec. (6710.64 ticks)
Parallel b&c, 32 threads:
  Real time             =   35.95 sec. (12117.27 ticks)
  Sync time (average)   =    1.44 sec.
  Wait time (average)   =    0.26 sec.
                          ------------
Total (root+branch&cut) =   45.58 sec. (18827.91 ticks)

Solution pool: 5 solutions saved.

MIP - Integer optimal, tolerance (0.01/1e-06):  Objective =  4.1965646852e+03
Current MIP best bound =  4.2322351065e+03 (gap = 35.6704, 0.85%)
Solution time =   45.61 sec.  Iterations = 66937  Nodes = 10386 (578)
Deterministic time = 18828.07 ticks  (412.81 ticks/sec)

CPLEX> Incumbent solution written to file 'C:\Users\llavin\Desktop\test919\logs\tmpewk0oys1.cplex.sol'.
CPLEX> Exporting results... 
